c t mc
c file mc2023_track1_022.cnf
p cnf 431 693
38 -21 6 0
22 -38 -5 21 0
22 -38 -6 0
38 -22 -21 0
38 -22 5 0
-22 -38 -5 -6 21 0
38 5 6 0
38 -22 6 0
-39 23 -7 0
38 23 7 -39 0
39 -38 7 0
38 -23 -7 -39 0
39 -23 -38 0
39 -23 7 0
-40 24 -8 0
39 24 8 -40 0
40 -39 8 0
39 -24 -8 -40 0
40 -39 -24 0
40 -24 8 0
-41 25 -9 0
40 25 9 -41 0
41 -40 9 0
40 -25 -9 -41 0
41 -40 -25 0
41 -25 9 0
-42 26 -10 0
41 26 10 -42 0
42 -41 10 0
41 -26 -10 -42 0
42 -41 -26 0
42 -26 10 0
-43 27 -11 0
42 27 11 -43 0
43 -42 11 0
42 -27 -11 -43 0
43 -42 -27 0
43 -27 11 0
-44 28 -12 0
43 28 12 -44 0
44 -43 12 0
43 -28 -12 -44 0
44 -43 -28 0
44 -28 12 0
-45 29 -13 0
44 29 13 -45 0
45 -44 13 0
44 -29 -13 -45 0
45 -44 -29 0
45 -29 13 0
-46 30 -14 0
45 30 14 -46 0
46 -45 14 0
45 -30 -14 -46 0
46 -45 -30 0
46 -30 14 0
-47 31 -15 0
46 31 15 -47 0
47 -46 15 0
46 -31 -15 -47 0
47 -46 -31 0
47 -31 15 0
-48 32 -16 0
47 32 16 -48 0
48 -47 16 0
47 -32 -16 -48 0
48 -47 -32 0
48 -32 16 0
-49 33 -17 0
48 33 17 -49 0
49 -48 17 0
48 -33 -17 -49 0
49 -48 -33 0
49 -33 17 0
-50 34 -18 0
49 34 18 -50 0
50 -49 18 0
49 -34 -18 -50 0
50 -49 -34 0
50 -34 18 0
412 -35 36 19 414 413 0
413 -50 -35 103 -20 412 -36 414 0
-50 -35 36 103 412 20 413 414 0
-35 -36 19 -20 414 413 412 0
-50 103 20 19 36 414 413 412 0
-50 103 19 -20 412 414 413 0
413 414 36 -20 412 0
103 -5 -20 76 77 73 84 85 80 78 75 83 74 81 79 72 82 -36 -21 0
21 -103 -5 0
36 81 5 75 83 84 73 85 80 79 78 74 77 72 82 103 76 20 21 0
-22 -72 -6 0
22 -72 6 0
-22 72 6 0
22 72 -6 0
-23 -73 -7 0
23 -73 7 0
-23 73 7 0
23 73 -7 0
-24 -74 -8 0
24 -74 8 0
-24 74 8 0
24 74 -8 0
-25 -75 -9 0
25 -75 9 0
-25 75 9 0
25 75 -9 0
-26 -76 -10 0
26 -76 10 0
-26 76 10 0
26 76 -10 0
-27 -77 -11 0
27 -77 11 0
-27 77 11 0
27 77 -11 0
-28 -78 -12 0
28 -78 12 0
-28 78 12 0
28 78 -12 0
-29 -79 -13 0
29 -79 13 0
-29 79 13 0
29 79 -13 0
-30 -80 -14 0
30 -80 14 0
-30 80 14 0
30 80 -14 0
-31 -81 -15 0
31 -81 15 0
-31 81 15 0
31 81 -15 0
-32 -82 -16 0
32 -82 16 0
-32 82 16 0
32 82 -16 0
-33 -83 -17 0
33 -83 17 0
-33 83 17 0
33 83 -17 0
-34 -84 -18 0
34 -84 18 0
-34 84 18 0
34 84 -18 0
-35 -85 -19 0
35 -85 19 0
-35 85 19 0
35 85 -19 0
-21 84 -5 82 83 73 72 85 80 79 78 74 75 81 76 77 103 20 36 0
36 -103 -20 0
-21 -103 5 0
-72 -103 0
-73 -103 0
-74 -103 0
-75 -103 0
-76 -103 0
-77 -103 0
-78 -103 0
-79 -103 0
-80 -103 0
-81 -103 0
-82 -103 0
-83 -103 0
-84 -103 0
-85 -103 0
-103 -36 20 0
79 81 76 84 83 73 72 85 80 78 74 82 75 77 103 -36 5 21 -20 0
157 -140 6 0
-157 140 -6 -5 0
141 -157 -6 0
140 141 -157 -5 0
140 157 5 -6 -141 0
157 -140 -141 0
157 5 6 0
157 -141 6 0
-158 142 -7 0
157 142 7 -158 0
158 -157 7 0
157 -142 -7 -158 0
158 -142 -157 0
158 -142 7 0
-159 143 -8 0
158 143 8 -159 0
159 -158 8 0
158 -143 -8 -159 0
159 -158 -143 0
159 -143 8 0
-160 144 -9 0
159 144 9 -160 0
160 -159 9 0
159 -144 -9 -160 0
160 -159 -144 0
160 -144 9 0
-161 145 -10 0
160 145 10 -161 0
161 -160 10 0
160 -145 -10 -161 0
161 -160 -145 0
161 -145 10 0
-162 146 -11 0
161 146 11 -162 0
162 -161 11 0
161 -146 -11 -162 0
162 -161 -146 0
162 -146 11 0
-163 147 -12 0
162 147 12 -163 0
163 -162 12 0
162 -147 -12 -163 0
163 -162 -147 0
163 -147 12 0
-164 148 -13 0
163 148 13 -164 0
164 -163 13 0
163 -148 -13 -164 0
164 -163 -148 0
164 -148 13 0
-165 149 -14 0
164 149 14 -165 0
165 -164 14 0
164 -149 -14 -165 0
165 -164 -149 0
165 -149 14 0
-166 150 -15 0
165 150 15 -166 0
166 -165 15 0
165 -150 -15 -166 0
166 -165 -150 0
166 -150 15 0
-167 151 -16 0
166 151 16 -167 0
167 -166 16 0
166 -151 -16 -167 0
167 -166 -151 0
167 -151 16 0
-168 152 -17 0
167 152 17 -168 0
168 -167 17 0
167 -152 -17 -168 0
168 -167 -152 0
168 -152 17 0
-169 153 -18 0
168 153 18 -169 0
169 -168 18 0
168 -153 -18 -169 0
169 -168 -153 0
169 -153 18 0
418 -154 20 19 155 417 416 0
-169 416 -154 -20 -155 222 417 418 0
-169 417 -154 222 155 416 20 418 0
418 -154 19 -20 -155 417 416 0
416 -169 155 222 418 19 417 0
416 417 -20 155 418 0
-169 417 222 -20 418 19 416 0
-140 -190 -5 0
140 -190 5 0
-140 190 5 0
140 190 -5 0
-141 -191 -6 0
141 -191 6 0
-141 191 6 0
141 191 -6 0
-142 -192 -7 0
142 -192 7 0
-142 192 7 0
142 192 -7 0
-143 -193 -8 0
143 -193 8 0
-143 193 8 0
143 193 -8 0
-144 -194 -9 0
144 -194 9 0
-144 194 9 0
144 194 -9 0
-145 -195 -10 0
145 -195 10 0
-145 195 10 0
145 195 -10 0
-146 -196 -11 0
146 -196 11 0
-146 196 11 0
146 196 -11 0
-147 -197 -12 0
147 -197 12 0
-147 197 12 0
147 197 -12 0
-148 -198 -13 0
148 -198 13 0
-148 198 13 0
148 198 -13 0
-149 -199 -14 0
149 -199 14 0
-149 199 14 0
149 199 -14 0
-150 -200 -15 0
150 -200 15 0
-150 200 15 0
150 200 -15 0
-151 -201 -16 0
151 -201 16 0
-151 201 16 0
151 201 -16 0
-152 -202 -17 0
152 -202 17 0
-152 202 17 0
152 202 -17 0
-153 -203 -18 0
153 -203 18 0
-153 203 18 0
153 203 -18 0
-154 200 -20 191 190 192 222 196 197 198 195 193 194 202 199 203 201 -155 -19 0
154 -222 -19 0
155 202 20 192 200 191 193 195 197 198 199 190 194 196 201 203 222 19 154 0
-154 201 -19 202 191 193 194 195 197 198 199 190 196 200 192 203 222 155 20 0
155 -222 -20 0
-190 -222 0
-191 -222 0
-192 -222 0
-193 -222 0
-194 -222 0
-195 -222 0
-196 -222 0
-197 -222 0
-198 -222 0
-199 -222 0
-200 -222 0
-201 -222 0
-202 -222 0
-203 -222 0
-154 -222 19 0
-222 -155 20 0
201 202 190 192 191 193 194 195 197 198 199 196 200 203 222 -155 19 154 -20 0
260 -243 6 0
-5 -260 -6 -244 243 0
-260 -6 244 0
-5 6 244 -260 243 0
260 5 -244 0
260 -243 -244 0
243 6 260 5 0
260 6 -244 0
-261 245 -7 0
260 7 245 -261 0
261 -260 7 0
260 -245 -7 -261 0
261 -260 -245 0
261 7 -245 0
-262 246 -8 0
261 8 246 -262 0
262 -261 8 0
261 -246 -8 -262 0
262 -261 -246 0
262 8 -246 0
-263 247 -9 0
262 9 247 -263 0
263 -262 9 0
262 -247 -9 -263 0
263 -262 -247 0
263 9 -247 0
-264 248 -10 0
263 10 248 -264 0
264 -263 10 0
263 -248 -10 -264 0
264 -263 -248 0
264 10 -248 0
-265 249 -11 0
264 11 249 -265 0
265 -264 11 0
264 -249 -11 -265 0
265 -264 -249 0
265 11 -249 0
-266 250 -12 0
265 12 250 -266 0
266 -265 12 0
265 -250 -12 -266 0
266 -265 -250 0
266 12 -250 0
-267 251 -13 0
266 13 251 -267 0
267 -266 13 0
266 -251 -13 -267 0
267 -266 -251 0
267 13 -251 0
-268 252 -14 0
267 14 252 -268 0
268 -267 14 0
267 -252 -14 -268 0
268 -267 -252 0
268 14 -252 0
-269 253 -15 0
268 15 253 -269 0
269 -268 15 0
268 -253 -15 -269 0
269 -268 -253 0
269 15 -253 0
-270 254 -16 0
269 16 254 -270 0
270 -269 16 0
269 -254 -16 -270 0
270 -269 -254 0
270 16 -254 0
-271 255 -17 0
270 17 255 -271 0
271 -270 17 0
270 -255 -17 -271 0
271 -270 -255 0
271 17 -255 0
-272 256 -18 0
-272 271 256 0
272 -271 18 0
-272 271 -18 0
272 -271 -256 0
272 -256 18 0
422 20 19 -257 258 421 420 0
-272 420 -257 325 -258 421 -20 422 0
-272 421 -257 325 258 420 20 422 0
422 -257 -258 19 421 -20 420 0
420 -272 258 325 19 422 421 0
420 421 -20 258 422 0
-272 421 325 -20 19 422 420 0
-243 -5 -293 0
243 5 -293 0
-243 5 293 0
243 -5 293 0
-6 -244 -294 0
6 244 -294 0
-244 6 294 0
244 -6 294 0
-7 -245 -295 0
7 245 -295 0
-245 7 295 0
-7 245 295 0
-8 -246 -296 0
8 246 -296 0
-246 8 296 0
-8 246 296 0
-9 -247 -297 0
9 247 -297 0
-247 9 297 0
-9 247 297 0
-10 -248 -298 0
10 248 -298 0
-248 10 298 0
-10 248 298 0
-11 -249 -299 0
11 249 -299 0
-249 11 299 0
-11 249 299 0
-12 -250 -300 0
12 250 -300 0
-250 12 300 0
-12 250 300 0
-13 -251 -301 0
13 251 -301 0
-251 13 301 0
-13 251 301 0
-14 -252 -302 0
14 252 -302 0
-252 14 302 0
-14 252 302 0
-15 -253 -303 0
15 253 -303 0
-253 15 303 0
-15 253 303 0
-16 -254 -304 0
16 254 -304 0
-254 16 304 0
-16 254 304 0
-17 -255 -305 0
17 255 -305 0
-255 17 305 0
-17 255 305 0
-18 -256 -306 0
18 256 -306 0
18 -256 306 0
-18 256 306 0
-257 -20 298 325 306 305 304 296 303 302 299 300 297 301 294 293 295 -258 -19 0
257 -19 -325 0
20 258 294 301 298 305 304 303 306 302 296 299 297 293 295 300 325 19 257 0
-257 -19 297 301 298 305 304 303 306 302 295 296 299 293 294 300 325 258 20 0
-20 258 -325 0
-293 -325 0
-294 -325 0
-295 -325 0
-296 -325 0
-297 -325 0
-298 -325 0
-299 -325 0
-300 -325 0
-301 -325 0
-302 -325 0
-303 -325 0
-304 -325 0
-305 -325 0
-306 -325 0
19 -257 -325 0
-325 20 -258 0
294 301 297 296 306 305 304 303 298 302 295 299 293 300 325 -258 19 257 -20 0
4 0
106 0
-107 0
225 0
-226 0
328 0
-329 0
430 0
-428 0
-429 0
427 0
426 0
327 0
224 0
105 0
411 0
410 0
409 0
405 0
404 0
403 0
399 0
398 0
397 0
345 0
344 0
343 0
342 0
341 0
340 0
339 0
338 0
337 0
336 0
335 0
334 0
333 0
332 0
331 0
330 0
3 0
326 0
242 0
241 0
240 0
239 0
238 0
237 0
236 0
235 0
234 0
233 0
232 0
231 0
230 0
229 0
228 0
227 0
2 0
223 0
139 0
138 0
137 0
136 0
135 0
134 0
133 0
132 0
131 0
130 0
129 0
128 0
127 0
126 0
125 0
124 0
1 0
104 0
423 0
419 0
415 0
292 0
189 0
70 0
324 0
221 0
102 0
291 0
188 0
69 0
323 0
322 0
321 0
320 0
319 0
318 0
317 0
316 0
315 0
314 0
313 0
312 0
311 0
310 0
309 0
308 0
307 0
220 0
219 0
218 0
37 0
217 0
216 0
215 0
214 0
213 0
212 0
71 0
211 0
210 0
209 0
208 0
207 0
206 0
205 0
204 0
156 0
259 0
86 0
87 0
88 0
89 0
90 0
91 0
92 0
93 0
94 0
95 0
96 0
97 0
98 0
99 0
100 0
101 0
186 0
185 0
184 0
183 0
182 0
181 0
180 0
179 0
178 0
177 0
176 0
175 0
174 0
173 0
172 0
187 0
171 0
170 0
62 0
61 0
60 0
59 0
58 0
57 0
56 0
55 0
54 0
53 0
63 0
64 0
65 0
66 0
67 0
68 0
52 0
51 0
282 0
281 0
280 0
279 0
278 0
277 0
276 0
275 0
283 0
284 0
285 0
286 0
287 0
288 0
289 0
290 0
274 0
273 0
